11351.0
[1, 1, 1, 1, 1, 1, 1, 1, 1, 0, 1, 0, 1, 1, 1, 1, 1, 1, 1, 1]
[15, 6, 19, 10, 12, 13, 5, 16, 15, 1, 5, 3, 6, 13, 6, 13, 12, 16, 2, 15, 0, 0, 10, 14, 14, 14, 1, 3, 19, 7, 1, 1, 17, 19, 15, 5, 13, 13, 10, 0, 0, 13, 13, 13, 16, 5, 5, 5, 5, 17, 15, 2, 0, 14, 14, 10, 6, 6, 13, 12, 13, 5, 1, 5, 15, 15, 10, 3, 7, 7, 15, 0, 0, 0, 10, 19, 19, 19, 19, 3, 19, 5, 16, 12, 13, 13, 6, 8, 12, 1, 13, 13, 13, 4, 18, 13, 18, 18, 18, 18]